sat
(:max-memory          18.07
 :memory              17.94
 :nlsat-conflicts     1
 :nlsat-learned-added 1
 :nlsat-propagations  12
 :nlsat-stages        6
 :num-allocs          5661
 :rlimit-count        1636
 :time                0.00
 :total-time          0.01)
